TITL d4low in P4(2)/n
CELL 0.71073 16.0182 16.0182 6.4288 90 90 90
ZERR 4 0.0039 0.0039 0.0017 0 0 0
LATT 1
SYMM 0.5-X,0.5-Y,+Z
SYMM -Y,0.5+X,0.5+Z
SYMM 0.5+Y,-X,0.5+Z
SFAC C H O Si
UNIT 32 96 16 16
 
L.S. 40
PLAN  20
TEMP 23
BOND
MORE -1
BOND $H
CONF
fmap 2
acta
SHEL 50 0.81
REM <olex2.extras>
REM <HklSrc "%.\\d4low_0m.hkl">
REM </olex2.extras>
 
WGHT    0.044000   12.934199
FVAR       0.39945
SI1   4    0.064406    0.388333    0.140693    11.00000    0.02869    0.02729 =
         0.04483    0.00871   -0.00900   -0.00129
SI2   4    0.114545    0.568050    0.012873    11.00000    0.02722    0.02741 =
         0.04094    0.00271   -0.00809   -0.00467
O1    3    0.103782    0.481482    0.139815    11.00000    0.03804    0.03423 =
         0.05560    0.01140   -0.01088   -0.00698
O2    3   -0.023784    0.388664    0.015649    11.00000    0.03037    0.03494 =
         0.05987   -0.00058   -0.01270    0.00069
C2B   1    0.047954    0.358776    0.414532    11.00000    0.05884    0.06646 =
         0.04539    0.01954   -0.01391   -0.01739
AFIX 137
H2BA  2    0.100323    0.360147    0.487064    11.00000   -1.50000
H2BB  2    0.025097    0.303435    0.421003    11.00000   -1.50000
H2BC  2    0.009867    0.397342    0.478248    11.00000   -1.50000
AFIX   0
C1A   1    0.134796    0.315099    0.009455    11.00000    0.05234    0.05221 =
         0.08017   -0.00986   -0.01918    0.01662
AFIX 137
H1AA  2    0.144799    0.333812   -0.130200    11.00000   -1.50000
H1AB  2    0.109701    0.260689    0.006257    11.00000   -1.50000
H1AC  2    0.186757    0.312436    0.083569    11.00000   -1.50000
AFIX   0
C4A   1    0.181011    0.638444    0.167880    11.00000    0.03767    0.03658 =
         0.05433   -0.00526   -0.00903   -0.00705
AFIX 137
H4AA  2    0.152088    0.654149    0.292676    11.00000   -1.50000
H4AB  2    0.193600    0.687515    0.088095    11.00000   -1.50000
H4AC  2    0.231961    0.610328    0.203595    11.00000   -1.50000
AFIX   0
C3A   1    0.159859    0.546283   -0.248879    11.00000    0.05375    0.06309 =
         0.04163   -0.00580   -0.00419   -0.00040
AFIX 137
H3AA  2    0.214091    0.521581   -0.233022    11.00000   -1.50000
H3AB  2    0.164729    0.597543   -0.325290    11.00000   -1.50000
H3AC  2    0.124075    0.508523   -0.323025    11.00000   -1.50000
AFIX   0
HKLF 4
 
REM  d4low in P4(2)/n
REM R1 =  0.1038 for    1290 Fo > 4sig(Fo)  and  0.1221 for all    1613 data
REM     77 parameters refined using      0 restraints
 
END  
     
WGHT      0.0440     12.9348 

REM Highest difference peak  0.970,  deepest hole -0.446,  1-sigma level  0.110
Q1    1   0.1186  0.5623  0.1775  11.00000  0.05    0.97
Q2    1   0.0625  0.3864 -0.0300  11.00000  0.05    0.92
Q3    1   0.0684  0.3817  0.2938  11.00000  0.05    0.70
Q4    1   0.1086  0.5665 -0.1515  11.00000  0.05    0.61
Q5    1   0.0579  0.2987  0.2499  11.00000  0.05    0.55
Q6    1   0.1024  0.5546  0.2951  11.00000  0.05    0.53
Q7    1   0.0156  0.2119  0.2772  11.00000  0.05    0.51
Q8    1   0.1318  0.5453 -0.5602  11.00000  0.05    0.44
Q9    1   0.1578  0.2478  0.2075  11.00000  0.05    0.41
Q10   1   0.2569  0.6644  0.3891  11.00000  0.05    0.41
Q11   1   0.1123  0.4695 -0.0191  11.00000  0.05    0.37
Q12   1   0.1292  0.3081 -0.2208  11.00000  0.05    0.35
Q13   1  -0.0089  0.4170  0.0938  11.00000  0.05    0.31
Q14   1   0.1255  0.4624  0.3060  11.00000  0.05    0.31
Q15   1   0.2581  0.6792  0.0722  11.00000  0.05    0.30
Q16   1  -0.0143  0.4102 -0.1856  11.00000  0.05    0.29
Q17   1  -0.0647  0.4007  0.0345  11.00000  0.05    0.28
Q18   1   0.0880  0.4986  0.0374  11.00000  0.05    0.28
Q19   1   0.0997  0.4792  0.3845  11.00000  0.05    0.27
Q20   1   0.1617  0.6191  0.0363  11.00000  0.05    0.27

  REM The information below was added by Olex2.
  REM
  REM R1 = 0.1038 for 1290 Fo > 4sig(Fo) and 0.1221 for all 12056 data
  REM n/a parameters refined using n/a restraints
  REM Highest difference peak 0.97, deepest hole -0.45
  REM Mean Shift 0, Max Shift 0.000.

  REM +++ Tabular Listing of Refinement Information +++
  REM R1_all = 0.1221
  REM R1_gt = 0.1038
  REM wR_ref = 0.2487
  REM GOOF = 1.262
  REM Shift_max = 0.000
  REM Shift_mean = 0
  REM Reflections_all = 12056
  REM Reflections_gt = 1290
  REM Parameters = n/a
  REM Hole = -0.45
  REM Peak = 0.97
  REM Flack = n/a

  